Route #1: 119 61 116
Route #2: 107 96 71 112 45 3 8 82 98 13 99 9 15 83 58 14 23 118 30 25 31 52 50
Route #3: 88 38 29 32 91 21 12 2 43 76 113 64 109 42 39 78 70 55 93 16 84 94 10
Route #4: 73 67 33 36 115 48 86 65 74 110 106 7 97 46 66 108 75 18 19 28 44 79
Route #5: 114 90 53 81 69 68 60 95 4 22 59 37 24 1 56 11 27 34 111 102 72 87 54 20
Route #6: 62 40 6 92 35 57 77 100 85 89 51 63 104 105 101 47 5 26 117 41 103 17 49 80
Cost 12856.000000